
<<< setup


<<< generate

Version identifier: 22.1.1.0 | 2022-11-28 | 9160aff4d
CPXPARAM_TimeLimit                               1800
Found incumbent of value 0.000000 after 0.00 sec. (0.07 ticks)
Tried aggregator 3 times.
MIP Presolve eliminated 33 rows and 240 columns.
MIP Presolve modified 840 coefficients.
Aggregator did 1320 substitutions.
Reduced MIP has 2040 rows, 1848 columns, and 5160 nonzeros.
Reduced MIP has 1216 binaries, 32 generals, 0 SOSs, and 960 indicators.
Presolve time = 0.00 sec. (9.53 ticks)
Probing fixed 0 vars, tightened 240 bounds.
Probing time = 0.01 sec. (7.83 ticks)
Tried aggregator 2 times.
Detecting symmetries...
Aggregator did 120 substitutions.
Reduced MIP has 1920 rows, 1728 columns, and 5040 nonzeros.
Reduced MIP has 1216 binaries, 512 generals, 0 SOSs, and 960 indicators.
Presolve time = 0.00 sec. (7.36 ticks)
Probing time = 0.00 sec. (2.41 ticks)
Clique table members: 2612.
MIP emphasis: balance optimality and feasibility.
MIP search method: dynamic search.
Parallel mode: deterministic, using up to 8 threads.
Root relaxation solution time = 0.00 sec. (5.65 ticks)

        Nodes                                         Cuts/
   Node  Left     Objective  IInf  Best Integer    Best Bound    ItCnt     Gap

*     0+    0                            0.0000       30.0000              --- 
*     0+    0                            4.0000       30.0000           650.00%
      0     0       30.0000   486        4.0000       30.0000      726  650.00%
*     0+    0                           10.0000       30.0000           200.00%
      0     0       30.0000   214       10.0000     Cuts: 114      848  200.00%
      0     0       30.0000   269       10.0000     Cuts: 507     1067  200.00%
      0     0       30.0000   112       10.0000      Cuts: 13     1091  200.00%
      0     0       30.0000    85       10.0000     Cuts: 152     1189  200.00%
      0     0       30.0000   107       10.0000     Cuts: 166     1310  200.00%
*     0+    0                           27.0000       30.0000            11.11%

Repeating presolve.
Tried aggregator 2 times.
MIP Presolve eliminated 846 rows and 726 columns.
Aggregator did 39 substitutions.
Reduced MIP has 1035 rows, 963 columns, and 2748 nonzeros.
Reduced MIP has 571 binaries, 392 generals, 0 SOSs, and 960 indicators.
Presolve time = 0.00 sec. (4.44 ticks)
Probing time = 0.00 sec. (2.77 ticks)
Tried aggregator 1 time.
Detecting symmetries...
Reduced MIP has 1035 rows, 963 columns, and 2748 nonzeros.
Reduced MIP has 571 binaries, 392 generals, 0 SOSs, and 960 indicators.
Presolve time = 0.00 sec. (2.44 ticks)
Represolve time = 0.01 sec. (14.57 ticks)
Probing time = 0.00 sec. (2.09 ticks)
Clique table members: 672.
MIP emphasis: balance optimality and feasibility.
MIP search method: dynamic search.
Parallel mode: deterministic, using up to 8 threads.
Root relaxation solution time = 0.00 sec. (6.17 ticks)

        Nodes                                         Cuts/
   Node  Left     Objective  IInf  Best Integer    Best Bound    ItCnt     Gap

*     0+    0                           27.0000       30.0000            11.11%
      0     0       30.0000   259       27.0000       30.0000     1664   11.11%
      0     0       30.0000   260       27.0000      Cuts: 88     1794   11.11%
      0     0       30.0000    48       27.0000       Cuts: 9     1802   11.11%
      0     0       30.0000   117       27.0000     Cuts: 118     1858   11.11%
*     0+    0                           28.0000       30.0000             7.14%
Detecting symmetries...
      0     2       30.0000    73       28.0000       30.0000     1858    7.14%
Elapsed time = 0.27 sec. (344.85 ticks, tree = 0.02 MB, solutions = 5)
*   213+   89                           29.0000       30.0000             3.45%
   2929  1557    infeasible             29.0000       30.0000    28015    3.45%
   4697  2169    infeasible             29.0000       30.0000    69635    3.45%

Performing restart 1

Repeating presolve.
Tried aggregator 1 time.
MIP Presolve eliminated 195 rows and 91 columns.
Reduced MIP has 840 rows, 872 columns, and 2280 nonzeros.
Reduced MIP has 480 binaries, 392 generals, 0 SOSs, and 960 indicators.
Presolve time = 0.00 sec. (1.39 ticks)
Tried aggregator 1 time.
Reduced MIP has 840 rows, 872 columns, and 2280 nonzeros.
Reduced MIP has 480 binaries, 392 generals, 0 SOSs, and 960 indicators.
Presolve time = 0.00 sec. (2.22 ticks)
Represolve time = 0.01 sec. (9.98 ticks)
   5124     0       30.0000   227       29.0000     Cuts: 123    85224    3.45%
   5124     0       30.0000   346       29.0000     Cuts: 310    85373    3.45%
   5124     0       30.0000    66       29.0000      Cuts: 19    85388    3.45%
   5124     0       30.0000   216       29.0000     Cuts: 310    85499    3.45%
   5124     0       30.0000    91       29.0000     Cuts: 159    85593    3.45%
   5124     0       30.0000   311       29.0000     Cuts: 310    85792    3.45%
*  5124+    0                           30.0000       30.0000             0.00%

Clique cuts applied:  40
Cover cuts applied:  33
Implied bound cuts applied:  181
Flow cuts applied:  4
Mixed integer rounding cuts applied:  118
Zero-half cuts applied:  5
Lift and project cuts applied:  3
Gomory fractional cuts applied:  53

Root node processing (before b&c):
  Real time             =    0.27 sec. (344.49 ticks)
Parallel b&c, 8 threads:
  Real time             =    0.57 sec. (713.90 ticks)
  Sync time (average)   =    0.12 sec.
  Wait time (average)   =    0.00 sec.
                          ------------
Total (root+branch&cut) =    0.84 sec. (1058.39 ticks)

<<< solve


OBJECTIVE: 30

<<< post process


<<< done

